(declare-const term_to_project_onto Real)
(declare-const term_to_project_onto3 Real)
(declare-const term_to_project_onto0 Real)
(declare-const term_to_project_onto1 Real)
(declare-const term_to_project_onto2 Real)
(declare-const term_to_project_onto4 Real)
(declare-const tmp Int)
(assert (exists
         ((|tmp'?1| Int) (|d'?2| Int) (|b'?3| Int) (|a'?4| Int)
            (phi_tmp?5 Int) (phi_tmp?6 Int) (phi_b?7 Int) (phi_a?8 Int)
            (phi_d?9 Int) (phi_d?10 Int) (phi_d?11 Int) (phi_a?12 Int)
            (phi_b?13 Int) (phi_a?14 Int) (phi_b?15 Int) (phi_a?16 Int)
            (|st'?17| Int) (|c'?18| Int) (K?19 Int) (|st'?20| Int)
            (|c'?21| Int) (d?22 Int) (st?23 Int) (b?24 Int) (a?25 Int)
            (SIZE?26 Int) (c?27 Int) (last?28 Int))
         (and (<= (- d?22) 0) (<= (- st?23) 0) (<= (- b?24) 0)
                (<= (- a?25) 0) (<= (+ (- SIZE?26) 1) 0) (<= (- c?27) 0)
                (<= (+ (- last?28) 1) 0) (= (+ (- SIZE?26) 20) 0)
                (= (+ (- |c'?18|) K?19) 0) (<= (+ |st'?17| -1) 0)
                (or (and (= K?19 0) (= (+ (- |st'?17|) 1) 0)
                           (= (- |c'?18|) 0))
                      (and (<= (+ (- K?19) 1) 0) (= (+ SIZE?26 -20) 0)
                             (<= (+ (- last?28) 1) 0) (= (+ SIZE?26 -20) 0)
                             (<= (+ |c'?18| -20) 0) (<= (- |st'?17|) 0)
                             (<= (+ (- |c'?18|) 1) 0)
                             (<= (+ (- last?28) 1) 0))) (<= (- K?19) 0)
                (<= (- |st'?17|) 0) (<= (+ (- SIZE?26) 1) 0)
                (<= (- |c'?18|) 0) (<= (+ (- last?28) 1) 0)
                (= (+ (- SIZE?26) 20) 0) (<= (+ (- |c'?18|) SIZE?26) 0)
                (or (and (= |st'?17| 0)
                           (or (and (or (<= (+ |c'?18| (- last?28)) 0)
                                          (<= (+ (- |c'?18|) last?28 2) 0))
                                      (= (+ (- phi_a?16) a?25 2) 0)
                                      (= (+ (- phi_b?15) b?24 2) 0))
                                 (and (= (+ |c'?18| (- last?28) -1) 0)
                                        (= (+ (- phi_a?16) a?25 3) 0)
                                        (= (+ (- phi_b?15) b?24 3) 0)))
                           (= (+ (- phi_a?14) phi_a?16) 0)
                           (= (+ (- phi_b?13) phi_b?15) 0))
                      (and (or (<= (+ |st'?17| 1) 0)
                                 (<= (+ (- |st'?17|) 1) 0))
                             (= (+ (- phi_a?14) a?25 2) 0)
                             (= (+ (- phi_b?13) b?24 2) 0)))
                (or (and (= (+ |c'?18| (- last?28)) 0) (= |st'?17| 0)
                           (= (+ (- phi_a?12) phi_a?14 1) 0)
                           (= (+ (- phi_d?11) d?22) 0))
                      (and (or (<= (+ |c'?18| (- last?28) 1) 0)
                                 (<= (+ (- |c'?18|) last?28 1) 0)
                                 (and (= (+ |c'?18| (- last?28)) 0)
                                        (or (<= (+ |st'?17| 1) 0)
                                              (<= (+ (- |st'?17|) 1) 0))))
                             (or (and (= (+ |st'?17| -1) 0)
                                        (or (and (<= (+ last?28 (- SIZE?26) 1) 0)
                                                   (= (+ (- phi_d?10) d?22) 0))
                                              (and (<= (+ (- last?28) SIZE?26) 0)
                                                     (= (+ (- phi_d?10) d?22
                                                             1) 0)))
                                        (= (+ (- phi_d?9) phi_d?10) 0))
                                   (and (or (<= |st'?17| 0)
                                              (<= (+ (- |st'?17|) 2) 0))
                                          (= (+ (- phi_d?9) d?22) 0)))
                             (= (+ (- phi_a?12) phi_a?14) 0)
                             (= (+ phi_d?9 (- phi_d?11)) 0)))
                (or (and (or (<= (+ phi_d?11 (- SIZE?26) 1) 0)
                               (<= (+ (- phi_d?11) SIZE?26 1) 0))
                           (= (+ (- phi_a?8) phi_a?12) 0)
                           (= (+ (- phi_b?7) phi_b?13) 0))
                      (and (= (+ phi_d?11 (- SIZE?26)) 0) (= (- phi_a?8) 0)
                             (= (+ (- phi_b?7) 1) 0)))
                (or (and (= (+ (- phi_b?7) phi_a?8) 0)
                           (or (and (or (<= (+ |c'?18| (- SIZE?26) 1) 0)
                                          (<= (+ (- |c'?18|) SIZE?26 1) 0))
                                      (= (- phi_tmp?6) 0))
                                 (and (= (+ |c'?18| (- SIZE?26)) 0)
                                        (= (+ (- phi_tmp?6) 1) 0)))
                           (= (+ (- phi_tmp?5) phi_tmp?6) 0))
                      (and (or (<= (+ (- phi_b?7) phi_a?8 1) 0)
                                 (<= (+ phi_b?7 (- phi_a?8) 1) 0))
                             (= (- phi_tmp?5) 0)))
                (or (<= (+ phi_tmp?5 1) 0) (<= (+ (- phi_tmp?5) 1) 0))
                (= (+ |tmp'?1| (- phi_tmp?5)) 0)
                (= (+ |d'?2| (- phi_d?11)) 0) (= (+ |st'?20| (- |st'?17|)) 0)
                (= (+ |c'?21| (- |c'?18|)) 0) (= (+ |b'?3| (- phi_b?7)) 0)
                (= (+ |a'?4| (- phi_a?8)) 0)
                (= term_to_project_onto4 (+ |a'?4| (- a?25)))
                (= term_to_project_onto3 (+ |b'?3| (- b?24)))
                (= term_to_project_onto2 (+ |c'?21| (- c?27)))
                (= term_to_project_onto1 (+ |st'?20| (- st?23)))
                (= term_to_project_onto0 (+ |d'?2| (- d?22)))
                (= term_to_project_onto (+ |tmp'?1| (- tmp))))))
(check-sat)
